experiment/data/lkh-res/Vrp-Set-P-n50/Vrp-Set-P-n50-lkh/2.lkh1.log
PARAMETER_FILE = baseline_results/cvrp_lkh/Vrp-Set-P-n50/Vrp-Set-P-n50-lkh/2.lkh1.par
Reading PROBLEM_FILE: "baseline_results/cvrp_lkh/Vrp-Set-P-n50/Vrp-Set-P-n50-lkh/2.lkh1.vrp" ... done
ASCENT_CANDIDATES = 49
BACKBONE_TRIALS = 0
BACKTRACKING = NO
# BWTSP =
# CANDIDATE_FILE =
CANDIDATE_SET_TYPE = ALPHA
# DISTANCE =
DEPOT = 1
# EDGE_FILE =
EXCESS = 0.02
EXTERNAL_SALESMEN = 0
EXTRA_CANDIDATES = 0 
EXTRA_CANDIDATE_SET_TYPE = QUADRANT
GAIN23 = NO
GAIN_CRITERION = YES
INITIAL_PERIOD = 100
INITIAL_STEP_SIZE = 1
INITIAL_TOUR_ALGORITHM = WALK
# INITIAL_TOUR_FILE = 
INITIAL_TOUR_FRACTION = 1.000
# INPUT_TOUR_FILE = 
KICK_TYPE = 4
KICKS = 1
# MAX_BREADTH =
MAKESPAN = NO
MAX_CANDIDATES = 5 
MAX_SWAPS = 0
MAX_TRIALS = 10000
# MERGE_TOUR_FILE =
MOVE_TYPE = 5 SPECIAL
MTSP_MIN_SIZE = 1
MTSP_MAX_SIZE = 49
# MTSP_SOLUTION_FILE = 
# NONSEQUENTIAL_MOVE_TYPE = 5
# OPTIMUM =
OUTPUT_TOUR_FILE = baseline_results/cvrp_lkh/Vrp-Set-P-n50/Vrp-Set-P-n50-lkh/2.lkh1.tour
PATCHING_A = 1 
PATCHING_C = 0 
# PI_FILE = 
POPMUSIC_INITIAL_TOUR = NO
POPMUSIC_MAX_NEIGHBORS = 5
POPMUSIC_SAMPLE_SIZE = 10
POPMUSIC_SOLUTIONS = 50
POPMUSIC_TRIALS = 1
POPULATION_SIZE = 10
PRECISION = 100
PROBLEM_FILE = baseline_results/cvrp_lkh/Vrp-Set-P-n50/Vrp-Set-P-n50-lkh/2.lkh1.vrp
RECOMBINATION = IPT
RESTRICTED_SEARCH = YES
RUNS = 1
SALESMEN = 8
SCALE = 1
SEED = 1234
# SINTEF_SOLUTION_FILE = 
STOP_AT_OPTIMUM = YES
SUBGRADIENT = YES
# SUBPROBLEM_SIZE =
# SUBPROBLEM_TOUR_FILE = 
SUBSEQUENT_MOVE_TYPE = 5 SPECIAL
SUBSEQUENT_PATCHING = YES
# TIME_LIMIT =
# TOTAL_TIME_LIMIT =
# TOUR_FILE = 
TRACE_LEVEL = 1
VEHICLES = 8

Lower bound = 48594.0, Ascent time = 0.01 sec.
Cand.min = 5, Cand.avg = 5.0, Cand.max = 5
Preprocessing time = 0.01 sec.
* 1: Cost = 0_75172, Time = 0.01 sec. 
Writing OUTPUT_TOUR_FILE: "baseline_results/cvrp_lkh/Vrp-Set-P-n50/Vrp-Set-P-n50-lkh/2.lkh1.tour" ... done
* 2: Cost = 0_72755, Time = 0.03 sec. 
Writing OUTPUT_TOUR_FILE: "baseline_results/cvrp_lkh/Vrp-Set-P-n50/Vrp-Set-P-n50-lkh/2.lkh1.tour" ... done
* 3: Cost = 0_70192, Time = 0.03 sec. 
Writing OUTPUT_TOUR_FILE: "baseline_results/cvrp_lkh/Vrp-Set-P-n50/Vrp-Set-P-n50-lkh/2.lkh1.tour" ... done
* 11: Cost = 0_69149, Time = 0.11 sec. 
Writing OUTPUT_TOUR_FILE: "baseline_results/cvrp_lkh/Vrp-Set-P-n50/Vrp-Set-P-n50-lkh/2.lkh1.tour" ... done
* 12: Cost = 0_68105, Time = 0.12 sec. 
Writing OUTPUT_TOUR_FILE: "baseline_results/cvrp_lkh/Vrp-Set-P-n50/Vrp-Set-P-n50-lkh/2.lkh1.tour" ... done
* 31: Cost = 0_67391, Time = 0.29 sec. 
Writing OUTPUT_TOUR_FILE: "baseline_results/cvrp_lkh/Vrp-Set-P-n50/Vrp-Set-P-n50-lkh/2.lkh1.tour" ... done
* 34: Cost = 0_66891, Time = 0.31 sec. 
Writing OUTPUT_TOUR_FILE: "baseline_results/cvrp_lkh/Vrp-Set-P-n50/Vrp-Set-P-n50-lkh/2.lkh1.tour" ... done
* 36: Cost = 0_66406, Time = 0.32 sec. 
Writing OUTPUT_TOUR_FILE: "baseline_results/cvrp_lkh/Vrp-Set-P-n50/Vrp-Set-P-n50-lkh/2.lkh1.tour" ... done
* 51: Cost = 0_65492, Time = 0.45 sec. 
Writing OUTPUT_TOUR_FILE: "baseline_results/cvrp_lkh/Vrp-Set-P-n50/Vrp-Set-P-n50-lkh/2.lkh1.tour" ... done
* 55: Cost = 0_65211, Time = 0.49 sec. 
Writing OUTPUT_TOUR_FILE: "baseline_results/cvrp_lkh/Vrp-Set-P-n50/Vrp-Set-P-n50-lkh/2.lkh1.tour" ... done
* 80: Cost = 0_65031, Time = 0.62 sec. 
Writing OUTPUT_TOUR_FILE: "baseline_results/cvrp_lkh/Vrp-Set-P-n50/Vrp-Set-P-n50-lkh/2.lkh1.tour" ... done
* 291: Cost = 0_64792, Time = 2.05 sec. 
Writing OUTPUT_TOUR_FILE: "baseline_results/cvrp_lkh/Vrp-Set-P-n50/Vrp-Set-P-n50-lkh/2.lkh1.tour" ... done
* 347: Cost = 0_63991, Time = 2.41 sec. 
Writing OUTPUT_TOUR_FILE: "baseline_results/cvrp_lkh/Vrp-Set-P-n50/Vrp-Set-P-n50-lkh/2.lkh1.tour" ... done
* 455: Cost = 0_63827, Time = 3.26 sec. 
Writing OUTPUT_TOUR_FILE: "baseline_results/cvrp_lkh/Vrp-Set-P-n50/Vrp-Set-P-n50-lkh/2.lkh1.tour" ... done
Population:
  1: 0_63827
Run 1: Cost = 0_63827, Time = 62.77 sec. 

Successes/Runs = 0/1 
Cost.min = 63827, Cost.avg = 63827.00, Cost.max = 63827
Gap.min = 0.0000%, Gap.avg = 0.0000%, Gap.max = 0.0000%
Penalty.min = 0, Penalty.avg = 0.00, Penalty.max = 0
Trials.min = 10000, Trials.avg = 10000.0, Trials.max = 10000
Time.min = 62.77 sec., Time.avg = 62.77 sec., Time.max = 62.77 sec.
Time.total = 62.78 sec.
  Size.min = 4, Size.max = 9, Penalty = 0
  Cost.min = 5307, Cost.max = 9767, Cost.sum = 63827
Best CVRP solution:
  Cost = 0_63827

