experiment/data/lkh-res/Vrp-Set-P-n50/Vrp-Set-P-n50-lkh/2.lkh1.tour
NAME : 2.63827.tour
COMMENT : Length = 63827
COMMENT : Found by LKH-3 [Keld Helsgaun] Tue Apr  9 02:37:31 2024
TYPE : TOUR
DIMENSION : 57
TOUR_SECTION
1
22
48
49
46
5
51
18
10
26
32
40
13
56
41
33
19
25
17
53
30
6
37
38
21
16
14
28
54
35
47
9
20
36
8
27
57
11
39
12
15
55
45
4
50
24
42
43
44
2
7
52
34
23
29
3
31
-1
EOF
